<instance format="XCSP3" type="CSP">
  <variables>
    <var id="x0"> 5 10 11 14 </var>
    <var id="x1"> 5 9..11 </var>
    <var id="x2"> 3 10 14 </var>
    <var id="x3"> 0 10 11 </var>
    <var id="x4"> 3 5 9 10 </var>
    <var id="x5"> 5 9 11 </var>
    <var id="x6"> 5 11 14 </var>
    <var id="x7"> 6 10 </var>
    <var id="x8"> 0 3 10 13 </var>
    <var id="x9"> 4 13 </var>
    <var id="x10"> 3 6 10 13 </var>
    <var id="x11"> 0 4 6 10 13 </var>
    <var id="x12"> 1 4 </var>
    <var id="x13"> 0 1 3 6 10 </var>
    <var id="x14"> 1 10 11 </var>
    <var id="x15"> 6 8 10 </var>
    <var id="x16"> 0 2 10 11 </var>
    <var id="x17"> 2 6 10 11 </var>
    <var id="x18"> 0 6 10 </var>
    <var id="x19"> 1 8 11 </var>
    <var id="x20"> 0 1 6 8 10 11 </var>
    <var id="x21"> 5 10 11 </var>
    <var id="x22"> 0 4 5 9 10 </var>
    <var id="x23"> 5 8..10 </var>
    <var id="x24"> 4 5 9 11 </var>
    <var id="x25"> 0 4 9 10 </var>
    <var id="x26"> 8 9 11 </var>
    <var id="x27"> 0 8 10 11 </var>
    <var id="x28"> 5 7 11 </var>
    <var id="x29"> 1 4 5 9 </var>
    <var id="x30"> 1 4 5 9 11 </var>
    <var id="x31"> 1 7 11 </var>
    <var id="x32"> 1 4 11 </var>
    <var id="x33"> 1 4 5 7 11 </var>
    <var id="x34"> 1 3 11 </var>
    <var id="x35"> 6 10 11 14 </var>
    <var id="x36"> 2 10 11 </var>
    <var id="x37"> 6 9 10 </var>
    <var id="x38"> 6 9 10 </var>
    <var id="x39"> 1 11 14 </var>
    <var id="x40"> 1 2 6 9 11 </var>
    <var id="x41"> 1 6 10 11 </var>
    <var id="x42"> 4 5 10..12 </var>
    <var id="x43"> 5 11 </var>
    <var id="x44"> 6 8 10 11 </var>
    <var id="x45"> 4 6 10 11 </var>
    <var id="x46"> 5 6 8 10 </var>
    <var id="x47"> 4 6 10 12 </var>
    <var id="x48"> 6 8 11 12 </var>
    <var id="x49"> 1 4 12 </var>
    <var id="x50"> 2 14 </var>
    <var id="x51"> 1 6 7 14 </var>
    <var id="x52"> 2 7 13 </var>
    <var id="x53"> 1 4 6 13 </var>
    <var id="x54"> 2 6 7 13 </var>
    <var id="x55"> 1 4 7 14 </var>
    <var id="x56"> 1 2 6 12 </var>
    <var id="x57"> 6 7 12 14 </var>
    <var id="x58"> 9 12 </var>
    <var id="x59"> 3 6 12..14 </var>
    <var id="x60"> 3 9 14 </var>
    <var id="x61"> 7 9 13 </var>
    <var id="x62"> 6 9 12 13 </var>
    <var id="x63"> 6 9 12 </var>
    <var id="x64"> 5 6 10 11 </var>
    <var id="x65"> 0 5 9 10 </var>
    <var id="x66"> 5 9..11 </var>
    <var id="x67"> 6 8 10 11 </var>
    <var id="x68"> 0 10 11 </var>
    <var id="x69"> 0 6 10 11 </var>
    <var id="x70"> 6 9..11 </var>
    <var id="x71"> 1 10 12 </var>
    <var id="x72"> 10 12 13 </var>
    <var id="x73"> 2 11 </var>
    <var id="x74"> 1 10 11 13 </var>
    <var id="x75"> 7 10 </var>
    <var id="x76"> 2 7 11 13 </var>
    <var id="x77"> 2 7 10 11 13 </var>
    <var id="x78"> 6 8 10 14 </var>
    <var id="x79"> 2 11 14 </var>
    <var id="x80"> 6 10 11 </var>
    <var id="x81"> 2 6 7 10 11 </var>
    <var id="x82"> 7 8 11 14 </var>
    <var id="x83"> 2 6 8 11 </var>
    <var id="x84"> 6 8 10 11 </var>
    <var id="x85"> 5 9 10 12 </var>
    <var id="x86"> 5 9 11 </var>
    <var id="x87"> 6 7 10 11 </var>
    <var id="x88"> 5..7 9 10 </var>
    <var id="x89"> 6 7 9..11 </var>
    <var id="x90"> 6 9 10 12 </var>
    <var id="x91"> 6 10 11 </var>
    <var id="x92"> 4 5 10 11 </var>
    <var id="x93"> 3 8 10 13 </var>
    <var id="x94"> 8 10 11 </var>
    <var id="x95"> 3 10 11 13 </var>
    <var id="x96"> 4 5 11 13 </var>
    <var as="x95" id="x97"/>
    <var id="x98"> 8 11 </var>
    <var id="x99"> 0 1 9 12 </var>
    <var id="x100"> 3 12 13 </var>
    <var id="x101"> 0 3 9 </var>
    <var id="x102"> 1 7 </var>
    <var id="x103"> 0 3 7 13 </var>
    <var id="x104"> 3 7 9 </var>
    <var id="x105"> 7 9 13 </var>
  </variables>
  <constraints>
    <group>
      <allDifferent> %... </allDifferent>
      <args> x0 x1 x2 x3 x4 x5 x6 </args>
      <args> x7 x8 x9 x10 x11 x12 x13 </args>
      <args> x14 x15 x16 x17 x18 x19 x20 </args>
      <args> x21 x22 x23 x24 x25 x26 x27 </args>
      <args> x28 x29 x30 x31 x32 x33 x34 </args>
      <args> x35 x36 x37 x38 x39 x40 x41 </args>
      <args> x42 x43 x44 x45 x46 x47 x48 </args>
      <args> x49 x50 x51 x52 x53 x54 x55 x56 </args>
      <args> x57 x58 x59 x60 x61 x62 x63 </args>
      <args> x64 x65 x66 x67 x68 x69 x70 </args>
      <args> x71 x72 x73 x74 x75 x76 x77 </args>
      <args> x78 x79 x80 x81 x82 x83 x84 </args>
      <args> x85 x86 x87 x88 x89 x90 x91 </args>
      <args> x92 x93 x94 x95 x96 x97 x98 </args>
      <args> x99 x100 x101 x102 x103 x104 x105 </args>
      <args> x0 x7 x21 x28 x35 x57 x64 </args>
      <args> x22 x29 x58 x65 x71 x85 x99 </args>
      <args> x1 x14 x30 x42 x49 x66 x92 </args>
      <args> x2 x15 x59 x72 x78 x93 x100 </args>
      <args> x43 x50 x60 x73 x79 x86 x101 </args>
      <args> x31 x44 x51 x67 x87 x94 x102 </args>
      <args> x8 x16 x36 x52 x68 x95 x103 </args>
      <args> x3 x32 x45 x53 x69 x74 x80 </args>
      <args> x4 x23 x37 x46 x75 x88 x104 </args>
      <args> x5 x9 x24 x61 x76 x96 x105 </args>
      <args> x10 x17 x54 x70 x77 x81 x89 x97 </args>
      <args> x11 x18 x25 x38 x47 x62 x90 </args>
      <args> x6 x12 x19 x33 x39 x55 x82 </args>
      <args> x26 x40 x48 x56 x63 x83 x98 </args>
      <args> x13 x20 x27 x34 x41 x84 x91 </args>
    </group>
  </constraints>
</instance>

